NAME: I14050-n42-k3
COMMENT : (Fake et al, No of trucks: 3, Optimal value: )
TYPE : CVRP
DIMENSION : 42
EDGE_WEIGHT_TYPE : EUC_2D
CAPACITY : 57
NODE_COORD_SECTION
1 904 587
2 847 178
3 961 259
4 428 965
5 125 500
6 937 868
7 231 67
8 604 368
9 594 128
10 574 723
11 875 412
12 969 585
13 103 387
14 676 901
15 14 793
16 719 679
17 943 379
18 224 427
19 434 435
20 749 78
21 277 996
22 460 21
23 227 208
24 874 300
25 978 961
26 555 635
27 957 689
28 293 286
29 238 640
30 160 119
31 297 716
32 414 854
33 359 457
34 282 941
35 889 119
36 654 523
37 52 708
38 276 720
39 830 528
40 628 45
41 115 457
42 271 895
DEMAND_SECTION
1 0
2 1
3 2
4 1
5 1
6 6
7 6
8 2
9 4
10 5
11 1
12 1
13 2
14 2
15 6
16 2
17 5
18 4
19 3
20 4
21 6
22 3
23 5
24 5
25 3
26 4
27 5
28 5
29 3
30 5
31 6
32 2
33 4
34 1
35 1
36 5
37 4
38 2
39 5
40 2
41 1
42 5
DEPOT_SECTION
 1
 -1
 EOF 